\Problem name: compact

Minimize
OBJROW: C
Subject To
ord(0,1):  x(0,0) - x(0,3) >= 2
ord(0,2):  - x(0,0) + x(0,1) >= 5
ord(0,3):  - x(0,1) + x(0,2) >= 3
ord(1,1):  - x(1,0) + x(1,2) >= 2
ord(1,2):  x(1,1) - x(1,2) >= 1
ord(1,3):  - x(1,1) + x(1,3) >= 5
ord(2,1):  - x(2,0) + x(2,2) >= 6
ord(2,2):  x(2,1) - x(2,2) >= 3
ord(2,3):  - x(2,1) + x(2,3) >= 5
ord(3,1):  x(3,0) - x(3,1) >= 2
ord(3,2):  - x(3,0) + x(3,2) >= 9
ord(3,3):  - x(3,2) + x(3,3) >= 3
ord(4,1):  - x(4,0) + x(4,2) >= 3
ord(4,2):  x(4,1) - x(4,2) >= 5
ord(4,3):  - x(4,1) + x(4,3) >= 9
triangle2(0,1,0):  y(0,1,0) + y(1,0,0) = 1
triangle2(0,1,1):  y(0,1,1) + y(1,0,1) = 1
triangle2(0,1,2):  y(0,1,2) + y(1,0,2) = 1
triangle2(0,1,3):  y(0,1,3) + y(1,0,3) = 1
triangle2(0,2,0):  y(0,2,0) + y(2,0,0) = 1
triangle2(0,2,1):  y(0,2,1) + y(2,0,1) = 1
triangle2(0,2,2):  y(0,2,2) + y(2,0,2) = 1
triangle2(0,2,3):  y(0,2,3) + y(2,0,3) = 1
triangle2(0,3,0):  y(0,3,0) + y(3,0,0) = 1
triangle2(0,3,1):  y(0,3,1) + y(3,0,1) = 1
triangle2(0,3,2):  y(0,3,2) + y(3,0,2) = 1
triangle2(0,3,3):  y(0,3,3) + y(3,0,3) = 1
triangle2(0,4,0):  y(0,4,0) + y(4,0,0) = 1
triangle2(0,4,1):  y(0,4,1) + y(4,0,1) = 1
triangle2(0,4,2):  y(0,4,2) + y(4,0,2) = 1
triangle2(0,4,3):  y(0,4,3) + y(4,0,3) = 1
triangle2(1,2,0):  y(1,2,0) + y(2,1,0) = 1
triangle2(1,2,1):  y(1,2,1) + y(2,1,1) = 1
triangle2(1,2,2):  y(1,2,2) + y(2,1,2) = 1
triangle2(1,2,3):  y(1,2,3) + y(2,1,3) = 1
triangle2(1,3,0):  y(1,3,0) + y(3,1,0) = 1
triangle2(1,3,1):  y(1,3,1) + y(3,1,1) = 1
triangle2(1,3,2):  y(1,3,2) + y(3,1,2) = 1
triangle2(1,3,3):  y(1,3,3) + y(3,1,3) = 1
triangle2(1,4,0):  y(1,4,0) + y(4,1,0) = 1
triangle2(1,4,1):  y(1,4,1) + y(4,1,1) = 1
triangle2(1,4,2):  y(1,4,2) + y(4,1,2) = 1
triangle2(1,4,3):  y(1,4,3) + y(4,1,3) = 1
triangle2(2,3,0):  y(2,3,0) + y(3,2,0) = 1
triangle2(2,3,1):  y(2,3,1) + y(3,2,1) = 1
triangle2(2,3,2):  y(2,3,2) + y(3,2,2) = 1
triangle2(2,3,3):  y(2,3,3) + y(3,2,3) = 1
triangle2(2,4,0):  y(2,4,0) + y(4,2,0) = 1
triangle2(2,4,1):  y(2,4,1) + y(4,2,1) = 1
triangle2(2,4,2):  y(2,4,2) + y(4,2,2) = 1
triangle2(2,4,3):  y(2,4,3) + y(4,2,3) = 1
triangle2(3,4,0):  y(3,4,0) + y(4,3,0) = 1
triangle2(3,4,1):  y(3,4,1) + y(4,3,1) = 1
triangle2(3,4,2):  y(3,4,2) + y(4,3,2) = 1
triangle2(3,4,3):  y(3,4,3) + y(4,3,3) = 1
MCLinV(0,1,0):  x(0,0) - v(0,1,0) - x(1,0) = 2
MCLinV(1,0,0):  - x(0,0) - v(1,0,0) + x(1,0) = 5
MCLin1(0,1,0):  u(0,1,0) >= -0
MCLin2(0,1,0):  -86 y(1,0,0) - u(0,1,0) <= -0
MCLin3(0,1,0):  83 y(1,0,0) + v(0,1,0) - u(0,1,0) <= 83
MCLin4(0,1,0):  83 y(1,0,0) - u(0,1,0) >= -0
MCLin5(0,1,0):  -86 y(1,0,0) + v(0,1,0) - u(0,1,0) >= -86
MCLin6(1,0,0):  u(1,0,0) >= -0
MCLin7(1,0,0):  -90 y(0,1,0) - u(1,0,0) <= -0
MCLin8(1,0,0):  79 y(0,1,0) + v(1,0,0) - u(1,0,0) <= 79
MCLin9(1,0,0):  79 y(0,1,0) - u(1,0,0) >= -0
MCLin10(1,0,0):  -90 y(0,1,0) + v(1,0,0) - u(1,0,0) >= -90
MCLinV(0,1,1):  x(0,1) - v(0,1,1) - x(1,1) = 5
MCLinV(1,0,1):  - x(0,1) - v(1,0,1) + x(1,1) = 3
MCLin1(0,1,1):  u(0,1,1) >= -0
MCLin2(0,1,1):  -87 y(1,0,1) - u(0,1,1) <= -0
MCLin3(0,1,1):  82 y(1,0,1) + v(0,1,1) - u(0,1,1) <= 82
MCLin4(0,1,1):  82 y(1,0,1) - u(0,1,1) >= -0
MCLin5(0,1,1):  -87 y(1,0,1) + v(0,1,1) - u(0,1,1) >= -87
MCLin6(1,0,1):  u(1,0,1) >= -0
MCLin7(1,0,1):  -90 y(0,1,1) - u(1,0,1) <= -0
MCLin8(1,0,1):  79 y(0,1,1) + v(1,0,1) - u(1,0,1) <= 79
MCLin9(1,0,1):  79 y(0,1,1) - u(1,0,1) >= -0
MCLin10(1,0,1):  -90 y(0,1,1) + v(1,0,1) - u(1,0,1) >= -90
MCLinV(0,1,2):  x(0,2) - v(0,1,2) - x(1,2) = 1
MCLinV(1,0,2):  - x(0,2) - v(1,0,2) + x(1,2) = 10
MCLin1(0,1,2):  u(0,1,2) >= -0
MCLin2(0,1,2):  -79 y(1,0,2) - u(0,1,2) <= -0
MCLin3(0,1,2):  90 y(1,0,2) + v(0,1,2) - u(0,1,2) <= 90
MCLin4(0,1,2):  90 y(1,0,2) - u(0,1,2) >= -0
MCLin5(0,1,2):  -79 y(1,0,2) + v(0,1,2) - u(0,1,2) >= -79
MCLin6(1,0,2):  u(1,0,2) >= -0
MCLin7(1,0,2):  -101 y(0,1,2) - u(1,0,2) <= -0
MCLin8(1,0,2):  68 y(0,1,2) + v(1,0,2) - u(1,0,2) <= 68
MCLin9(1,0,2):  68 y(0,1,2) - u(1,0,2) >= -0
MCLin10(1,0,2):  -101 y(0,1,2) + v(1,0,2) - u(1,0,2) >= -101
MCLinV(0,1,3):  x(0,3) - v(0,1,3) - x(1,3) = 9
MCLinV(1,0,3):  - x(0,3) - v(1,0,3) + x(1,3) = 2
MCLin1(0,1,3):  u(0,1,3) >= -0
MCLin2(0,1,3):  -103 y(1,0,3) - u(0,1,3) <= -0
MCLin3(0,1,3):  66 y(1,0,3) + v(0,1,3) - u(0,1,3) <= 66
MCLin4(0,1,3):  66 y(1,0,3) - u(0,1,3) >= -0
MCLin5(0,1,3):  -103 y(1,0,3) + v(0,1,3) - u(0,1,3) >= -103
MCLin6(1,0,3):  u(1,0,3) >= -0
MCLin7(1,0,3):  -77 y(0,1,3) - u(1,0,3) <= -0
MCLin8(1,0,3):  92 y(0,1,3) + v(1,0,3) - u(1,0,3) <= 92
MCLin9(1,0,3):  92 y(0,1,3) - u(1,0,3) >= -0
MCLin10(1,0,3):  -77 y(0,1,3) + v(1,0,3) - u(1,0,3) >= -77
MCLinV(0,2,0):  x(0,0) - v(0,2,0) - x(2,0) = 6
MCLinV(2,0,0):  - x(0,0) - v(2,0,0) + x(2,0) = 5
MCLin1(0,2,0):  u(0,2,0) >= -0
MCLin2(0,2,0):  -87 y(2,0,0) - u(0,2,0) <= -0
MCLin3(0,2,0):  79 y(2,0,0) + v(0,2,0) - u(0,2,0) <= 79
MCLin4(0,2,0):  79 y(2,0,0) - u(0,2,0) >= -0
MCLin5(0,2,0):  -87 y(2,0,0) + v(0,2,0) - u(0,2,0) >= -87
MCLin6(2,0,0):  u(2,0,0) >= -0
MCLin7(2,0,0):  -90 y(0,2,0) - u(2,0,0) <= -0
MCLin8(2,0,0):  76 y(0,2,0) + v(2,0,0) - u(2,0,0) <= 76
MCLin9(2,0,0):  76 y(0,2,0) - u(2,0,0) >= -0
MCLin10(2,0,0):  -90 y(0,2,0) + v(2,0,0) - u(2,0,0) >= -90
MCLinV(0,2,1):  x(0,1) - v(0,2,1) - x(2,1) = 5
MCLinV(2,0,1):  - x(0,1) - v(2,0,1) + x(2,1) = 3
MCLin1(0,2,1):  u(0,2,1) >= -0
MCLin2(0,2,1):  -90 y(2,0,1) - u(0,2,1) <= -0
MCLin3(0,2,1):  76 y(2,0,1) + v(0,2,1) - u(0,2,1) <= 76
MCLin4(0,2,1):  76 y(2,0,1) - u(0,2,1) >= -0
MCLin5(0,2,1):  -90 y(2,0,1) + v(0,2,1) - u(0,2,1) >= -90
MCLin6(2,0,1):  u(2,0,1) >= -0
MCLin7(2,0,1):  -84 y(0,2,1) - u(2,0,1) <= -0
MCLin8(2,0,1):  82 y(0,2,1) + v(2,0,1) - u(2,0,1) <= 82
MCLin9(2,0,1):  82 y(0,2,1) - u(2,0,1) >= -0
MCLin10(2,0,1):  -84 y(0,2,1) + v(2,0,1) - u(2,0,1) >= -84
MCLinV(0,2,2):  x(0,2) - v(0,2,2) - x(2,2) = 3
MCLinV(2,0,2):  - x(0,2) - v(2,0,2) + x(2,2) = 10
MCLin1(0,2,2):  u(0,2,2) >= -0
MCLin2(0,2,2):  -82 y(2,0,2) - u(0,2,2) <= -0
MCLin3(0,2,2):  84 y(2,0,2) + v(0,2,2) - u(0,2,2) <= 84
MCLin4(0,2,2):  84 y(2,0,2) - u(0,2,2) >= -0
MCLin5(0,2,2):  -82 y(2,0,2) + v(0,2,2) - u(0,2,2) >= -82
MCLin6(2,0,2):  u(2,0,2) >= -0
MCLin7(2,0,2):  -97 y(0,2,2) - u(2,0,2) <= -0
MCLin8(2,0,2):  69 y(0,2,2) + v(2,0,2) - u(2,0,2) <= 69
MCLin9(2,0,2):  69 y(0,2,2) - u(2,0,2) >= -0
MCLin10(2,0,2):  -97 y(0,2,2) + v(2,0,2) - u(2,0,2) >= -97
MCLinV(0,2,3):  x(0,3) - v(0,2,3) - x(2,3) = 6
MCLinV(2,0,3):  - x(0,3) - v(2,0,3) + x(2,3) = 2
MCLin1(0,2,3):  u(0,2,3) >= -0
MCLin2(0,2,3):  -103 y(2,0,3) - u(0,2,3) <= -0
MCLin3(0,2,3):  63 y(2,0,3) + v(0,2,3) - u(0,2,3) <= 63
MCLin4(0,2,3):  63 y(2,0,3) - u(0,2,3) >= -0
MCLin5(0,2,3):  -103 y(2,0,3) + v(0,2,3) - u(0,2,3) >= -103
MCLin6(2,0,3):  u(2,0,3) >= -0
MCLin7(2,0,3):  -71 y(0,2,3) - u(2,0,3) <= -0
MCLin8(2,0,3):  95 y(0,2,3) + v(2,0,3) - u(2,0,3) <= 95
MCLin9(2,0,3):  95 y(0,2,3) - u(2,0,3) >= -0
MCLin10(2,0,3):  -71 y(0,2,3) + v(2,0,3) - u(2,0,3) >= -71
MCLinV(0,3,0):  x(0,0) - v(0,3,0) - x(3,0) = 9
MCLinV(3,0,0):  - x(0,0) - v(3,0,0) + x(3,0) = 5
MCLin1(0,3,0):  u(0,3,0) >= -0
MCLin2(0,3,0):  -89 y(3,0,0) - u(0,3,0) <= -0
MCLin3(0,3,0):  74 y(3,0,0) + v(0,3,0) - u(0,3,0) <= 74
MCLin4(0,3,0):  74 y(3,0,0) - u(0,3,0) >= -0
MCLin5(0,3,0):  -89 y(3,0,0) + v(0,3,0) - u(0,3,0) >= -89
MCLin6(3,0,0):  u(3,0,0) >= -0
MCLin7(3,0,0):  -88 y(0,3,0) - u(3,0,0) <= -0
MCLin8(3,0,0):  75 y(0,3,0) + v(3,0,0) - u(3,0,0) <= 75
MCLin9(3,0,0):  75 y(0,3,0) - u(3,0,0) >= -0
MCLin10(3,0,0):  -88 y(0,3,0) + v(3,0,0) - u(3,0,0) >= -88
MCLinV(0,3,1):  x(0,1) - v(0,3,1) - x(3,1) = 2
MCLinV(3,0,1):  - x(0,1) - v(3,0,1) + x(3,1) = 3
MCLin1(0,3,1):  u(0,3,1) >= -0
MCLin2(0,3,1):  -75 y(3,0,1) - u(0,3,1) <= -0
MCLin3(0,3,1):  88 y(3,0,1) + v(0,3,1) - u(0,3,1) <= 88
MCLin4(0,3,1):  88 y(3,0,1) - u(0,3,1) >= -0
MCLin5(0,3,1):  -75 y(3,0,1) + v(0,3,1) - u(0,3,1) >= -75
MCLin6(3,0,1):  u(3,0,1) >= -0
MCLin7(3,0,1):  -93 y(0,3,1) - u(3,0,1) <= -0
MCLin8(3,0,1):  70 y(0,3,1) + v(3,0,1) - u(3,0,1) <= 70
MCLin9(3,0,1):  70 y(0,3,1) - u(3,0,1) >= -0
MCLin10(3,0,1):  -93 y(0,3,1) + v(3,0,1) - u(3,0,1) >= -93
MCLinV(0,3,2):  x(0,2) - v(0,3,2) - x(3,2) = 3
MCLinV(3,0,2):  - x(0,2) - v(3,0,2) + x(3,2) = 10
MCLin1(0,3,2):  u(0,3,2) >= -0
MCLin2(0,3,2):  -84 y(3,0,2) - u(0,3,2) <= -0
MCLin3(0,3,2):  79 y(3,0,2) + v(0,3,2) - u(0,3,2) <= 79
MCLin4(0,3,2):  79 y(3,0,2) - u(0,3,2) >= -0
MCLin5(0,3,2):  -84 y(3,0,2) + v(0,3,2) - u(0,3,2) >= -84
MCLin6(3,0,2):  u(3,0,2) >= -0
MCLin7(3,0,2):  -92 y(0,3,2) - u(3,0,2) <= -0
MCLin8(3,0,2):  71 y(0,3,2) + v(3,0,2) - u(3,0,2) <= 71
MCLin9(3,0,2):  71 y(0,3,2) - u(3,0,2) >= -0
MCLin10(3,0,2):  -92 y(0,3,2) + v(3,0,2) - u(3,0,2) >= -92
MCLinV(0,3,3):  x(0,3) - v(0,3,3) - x(3,3) = 9
MCLinV(3,0,3):  - x(0,3) - v(3,0,3) + x(3,3) = 2
MCLin1(0,3,3):  u(0,3,3) >= -0
MCLin2(0,3,3):  -103 y(3,0,3) - u(0,3,3) <= -0
MCLin3(0,3,3):  60 y(3,0,3) + v(0,3,3) - u(0,3,3) <= 60
MCLin4(0,3,3):  60 y(3,0,3) - u(0,3,3) >= -0
MCLin5(0,3,3):  -103 y(3,0,3) + v(0,3,3) - u(0,3,3) >= -103
MCLin6(3,0,3):  u(3,0,3) >= -0
MCLin7(3,0,3):  -71 y(0,3,3) - u(3,0,3) <= -0
MCLin8(3,0,3):  92 y(0,3,3) + v(3,0,3) - u(3,0,3) <= 92
MCLin9(3,0,3):  92 y(0,3,3) - u(3,0,3) >= -0
MCLin10(3,0,3):  -71 y(0,3,3) + v(3,0,3) - u(3,0,3) >= -71
MCLinV(0,4,0):  x(0,0) - v(0,4,0) - x(4,0) = 3
MCLinV(4,0,0):  - x(0,0) - v(4,0,0) + x(4,0) = 5
MCLin1(0,4,0):  u(0,4,0) >= -0
MCLin2(0,4,0):  -81 y(4,0,0) - u(0,4,0) <= -0
MCLin3(0,4,0):  82 y(4,0,0) + v(0,4,0) - u(0,4,0) <= 82
MCLin4(0,4,0):  82 y(4,0,0) - u(0,4,0) >= -0
MCLin5(0,4,0):  -81 y(4,0,0) + v(0,4,0) - u(0,4,0) >= -81
MCLin6(4,0,0):  u(4,0,0) >= -0
MCLin7(4,0,0):  -90 y(0,4,0) - u(4,0,0) <= -0
MCLin8(4,0,0):  73 y(0,4,0) + v(4,0,0) - u(4,0,0) <= 73
MCLin9(4,0,0):  73 y(0,4,0) - u(4,0,0) >= -0
MCLin10(4,0,0):  -90 y(0,4,0) + v(4,0,0) - u(4,0,0) >= -90
MCLinV(0,4,1):  x(0,1) - v(0,4,1) - x(4,1) = 9
MCLinV(4,0,1):  - x(0,1) - v(4,0,1) + x(4,1) = 3
MCLin1(0,4,1):  u(0,4,1) >= -0
MCLin2(0,4,1):  -90 y(4,0,1) - u(0,4,1) <= -0
MCLin3(0,4,1):  73 y(4,0,1) + v(0,4,1) - u(0,4,1) <= 73
MCLin4(0,4,1):  73 y(4,0,1) - u(0,4,1) >= -0
MCLin5(0,4,1):  -90 y(4,0,1) + v(0,4,1) - u(0,4,1) >= -90
MCLin6(4,0,1):  u(4,0,1) >= -0
MCLin7(4,0,1):  -85 y(0,4,1) - u(4,0,1) <= -0
MCLin8(4,0,1):  78 y(0,4,1) + v(4,0,1) - u(4,0,1) <= 78
MCLin9(4,0,1):  78 y(0,4,1) - u(4,0,1) >= -0
MCLin10(4,0,1):  -85 y(0,4,1) + v(4,0,1) - u(4,0,1) >= -85
MCLinV(0,4,2):  x(0,2) - v(0,4,2) - x(4,2) = 5
MCLinV(4,0,2):  - x(0,2) - v(4,0,2) + x(4,2) = 10
MCLin1(0,4,2):  u(0,4,2) >= -0
MCLin2(0,4,2):  -78 y(4,0,2) - u(0,4,2) <= -0
MCLin3(0,4,2):  85 y(4,0,2) + v(0,4,2) - u(0,4,2) <= 85
MCLin4(0,4,2):  85 y(4,0,2) - u(0,4,2) >= -0
MCLin5(0,4,2):  -78 y(4,0,2) + v(0,4,2) - u(0,4,2) >= -78
MCLin6(4,0,2):  u(4,0,2) >= -0
MCLin7(4,0,2):  -100 y(0,4,2) - u(4,0,2) <= -0
MCLin8(4,0,2):  63 y(0,4,2) + v(4,0,2) - u(4,0,2) <= 63
MCLin9(4,0,2):  63 y(0,4,2) - u(4,0,2) >= -0
MCLin10(4,0,2):  -100 y(0,4,2) + v(4,0,2) - u(4,0,2) >= -100
MCLinV(0,4,3):  x(0,3) - v(0,4,3) - x(4,3) = 6
MCLinV(4,0,3):  - x(0,3) - v(4,0,3) + x(4,3) = 2
MCLin1(0,4,3):  u(0,4,3) >= -0
MCLin2(0,4,3):  -103 y(4,0,3) - u(0,4,3) <= -0
MCLin3(0,4,3):  60 y(4,0,3) + v(0,4,3) - u(0,4,3) <= 60
MCLin4(0,4,3):  60 y(4,0,3) - u(0,4,3) >= -0
MCLin5(0,4,3):  -103 y(4,0,3) + v(0,4,3) - u(0,4,3) >= -103
MCLin6(4,0,3):  u(4,0,3) >= -0
MCLin7(4,0,3):  -68 y(0,4,3) - u(4,0,3) <= -0
MCLin8(4,0,3):  95 y(0,4,3) + v(4,0,3) - u(4,0,3) <= 95
MCLin9(4,0,3):  95 y(0,4,3) - u(4,0,3) >= -0
MCLin10(4,0,3):  -68 y(0,4,3) + v(4,0,3) - u(4,0,3) >= -68
MCLinV(1,2,0):  x(1,0) - v(1,2,0) - x(2,0) = 6
MCLinV(2,1,0):  - x(1,0) - v(2,1,0) + x(2,0) = 2
MCLin1(1,2,0):  u(1,2,0) >= -0
MCLin2(1,2,0):  -89 y(2,1,0) - u(1,2,0) <= -0
MCLin3(1,2,0):  80 y(2,1,0) + v(1,2,0) - u(1,2,0) <= 80
MCLin4(1,2,0):  80 y(2,1,0) - u(1,2,0) >= -0
MCLin5(1,2,0):  -89 y(2,1,0) + v(1,2,0) - u(1,2,0) >= -89
MCLin6(2,1,0):  u(2,1,0) >= -0
MCLin7(2,1,0):  -88 y(1,2,0) - u(2,1,0) <= -0
MCLin8(2,1,0):  81 y(1,2,0) + v(2,1,0) - u(2,1,0) <= 81
MCLin9(2,1,0):  81 y(1,2,0) - u(2,1,0) >= -0
MCLin10(2,1,0):  -88 y(1,2,0) + v(2,1,0) - u(2,1,0) >= -88
MCLinV(1,2,1):  x(1,1) - v(1,2,1) - x(2,1) = 5
MCLinV(2,1,1):  - x(1,1) - v(2,1,1) + x(2,1) = 5
MCLin1(1,2,1):  u(1,2,1) >= -0
MCLin2(1,2,1):  -94 y(2,1,1) - u(1,2,1) <= -0
MCLin3(1,2,1):  75 y(2,1,1) + v(1,2,1) - u(1,2,1) <= 75
MCLin4(1,2,1):  75 y(2,1,1) - u(1,2,1) >= -0
MCLin5(1,2,1):  -94 y(2,1,1) + v(1,2,1) - u(1,2,1) >= -94
MCLin6(2,1,1):  u(2,1,1) >= -0
MCLin7(2,1,1):  -85 y(1,2,1) - u(2,1,1) <= -0
MCLin8(2,1,1):  84 y(1,2,1) + v(2,1,1) - u(2,1,1) <= 84
MCLin9(2,1,1):  84 y(1,2,1) - u(2,1,1) >= -0
MCLin10(2,1,1):  -85 y(1,2,1) + v(2,1,1) - u(2,1,1) >= -85
MCLinV(1,2,2):  x(1,2) - v(1,2,2) - x(2,2) = 3
MCLinV(2,1,2):  - x(1,2) - v(2,1,2) + x(2,2) = 1
MCLin1(1,2,2):  u(1,2,2) >= -0
MCLin2(1,2,2):  -90 y(2,1,2) - u(1,2,2) <= -0
MCLin3(1,2,2):  79 y(2,1,2) + v(1,2,2) - u(1,2,2) <= 79
MCLin4(1,2,2):  79 y(2,1,2) - u(1,2,2) >= -0
MCLin5(1,2,2):  -90 y(2,1,2) + v(1,2,2) - u(1,2,2) >= -90
MCLin6(2,1,2):  u(2,1,2) >= -0
MCLin7(2,1,2):  -83 y(1,2,2) - u(2,1,2) <= -0
MCLin8(2,1,2):  86 y(1,2,2) + v(2,1,2) - u(2,1,2) <= 86
MCLin9(2,1,2):  86 y(1,2,2) - u(2,1,2) >= -0
MCLin10(2,1,2):  -83 y(1,2,2) + v(2,1,2) - u(2,1,2) >= -83
MCLinV(1,2,3):  x(1,3) - v(1,2,3) - x(2,3) = 6
MCLinV(2,1,3):  - x(1,3) - v(2,1,3) + x(2,3) = 9
MCLin1(1,2,3):  u(1,2,3) >= -0
MCLin2(1,2,3):  -95 y(2,1,3) - u(1,2,3) <= -0
MCLin3(1,2,3):  74 y(2,1,3) + v(1,2,3) - u(1,2,3) <= 74
MCLin4(1,2,3):  74 y(2,1,3) - u(1,2,3) >= -0
MCLin5(1,2,3):  -95 y(2,1,3) + v(1,2,3) - u(1,2,3) >= -95
MCLin6(2,1,3):  u(2,1,3) >= -0
MCLin7(2,1,3):  -89 y(1,2,3) - u(2,1,3) <= -0
MCLin8(2,1,3):  80 y(1,2,3) + v(2,1,3) - u(2,1,3) <= 80
MCLin9(2,1,3):  80 y(1,2,3) - u(2,1,3) >= -0
MCLin10(2,1,3):  -89 y(1,2,3) + v(2,1,3) - u(2,1,3) >= -89
MCLinV(1,3,0):  x(1,0) - v(1,3,0) - x(3,0) = 9
MCLinV(3,1,0):  - x(1,0) - v(3,1,0) + x(3,0) = 2
MCLin1(1,3,0):  u(1,3,0) >= -0
MCLin2(1,3,0):  -91 y(3,1,0) - u(1,3,0) <= -0
MCLin3(1,3,0):  75 y(3,1,0) + v(1,3,0) - u(1,3,0) <= 75
MCLin4(1,3,0):  75 y(3,1,0) - u(1,3,0) >= -0
MCLin5(1,3,0):  -91 y(3,1,0) + v(1,3,0) - u(1,3,0) >= -91
MCLin6(3,1,0):  u(3,1,0) >= -0
MCLin7(3,1,0):  -86 y(1,3,0) - u(3,1,0) <= -0
MCLin8(3,1,0):  80 y(1,3,0) + v(3,1,0) - u(3,1,0) <= 80
MCLin9(3,1,0):  80 y(1,3,0) - u(3,1,0) >= -0
MCLin10(3,1,0):  -86 y(1,3,0) + v(3,1,0) - u(3,1,0) >= -86
MCLinV(1,3,1):  x(1,1) - v(1,3,1) - x(3,1) = 2
MCLinV(3,1,1):  - x(1,1) - v(3,1,1) + x(3,1) = 5
MCLin1(1,3,1):  u(1,3,1) >= -0
MCLin2(1,3,1):  -79 y(3,1,1) - u(1,3,1) <= -0
MCLin3(1,3,1):  87 y(3,1,1) + v(1,3,1) - u(1,3,1) <= 87
MCLin4(1,3,1):  87 y(3,1,1) - u(1,3,1) >= -0
MCLin5(1,3,1):  -79 y(3,1,1) + v(1,3,1) - u(1,3,1) >= -79
MCLin6(3,1,1):  u(3,1,1) >= -0
MCLin7(3,1,1):  -94 y(1,3,1) - u(3,1,1) <= -0
MCLin8(3,1,1):  72 y(1,3,1) + v(3,1,1) - u(3,1,1) <= 72
MCLin9(3,1,1):  72 y(1,3,1) - u(3,1,1) >= -0
MCLin10(3,1,1):  -94 y(1,3,1) + v(3,1,1) - u(3,1,1) >= -94
MCLinV(1,3,2):  x(1,2) - v(1,3,2) - x(3,2) = 3
MCLinV(3,1,2):  - x(1,2) - v(3,1,2) + x(3,2) = 1
MCLin1(1,3,2):  u(1,3,2) >= -0
MCLin2(1,3,2):  -92 y(3,1,2) - u(1,3,2) <= -0
MCLin3(1,3,2):  74 y(3,1,2) + v(1,3,2) - u(1,3,2) <= 74
MCLin4(1,3,2):  74 y(3,1,2) - u(1,3,2) >= -0
MCLin5(1,3,2):  -92 y(3,1,2) + v(1,3,2) - u(1,3,2) >= -92
MCLin6(3,1,2):  u(3,1,2) >= -0
MCLin7(3,1,2):  -78 y(1,3,2) - u(3,1,2) <= -0
MCLin8(3,1,2):  88 y(1,3,2) + v(3,1,2) - u(3,1,2) <= 88
MCLin9(3,1,2):  88 y(1,3,2) - u(3,1,2) >= -0
MCLin10(3,1,2):  -78 y(1,3,2) + v(3,1,2) - u(3,1,2) >= -78
MCLinV(1,3,3):  x(1,3) - v(1,3,3) - x(3,3) = 9
MCLinV(3,1,3):  - x(1,3) - v(3,1,3) + x(3,3) = 9
MCLin1(1,3,3):  u(1,3,3) >= -0
MCLin2(1,3,3):  -95 y(3,1,3) - u(1,3,3) <= -0
MCLin3(1,3,3):  71 y(3,1,3) + v(1,3,3) - u(1,3,3) <= 71
MCLin4(1,3,3):  71 y(3,1,3) - u(1,3,3) >= -0
MCLin5(1,3,3):  -95 y(3,1,3) + v(1,3,3) - u(1,3,3) >= -95
MCLin6(3,1,3):  u(3,1,3) >= -0
MCLin7(3,1,3):  -89 y(1,3,3) - u(3,1,3) <= -0
MCLin8(3,1,3):  77 y(1,3,3) + v(3,1,3) - u(3,1,3) <= 77
MCLin9(3,1,3):  77 y(1,3,3) - u(3,1,3) >= -0
MCLin10(3,1,3):  -89 y(1,3,3) + v(3,1,3) - u(3,1,3) >= -89
MCLinV(1,4,0):  x(1,0) - v(1,4,0) - x(4,0) = 3
MCLinV(4,1,0):  - x(1,0) - v(4,1,0) + x(4,0) = 2
MCLin1(1,4,0):  u(1,4,0) >= -0
MCLin2(1,4,0):  -83 y(4,1,0) - u(1,4,0) <= -0
MCLin3(1,4,0):  83 y(4,1,0) + v(1,4,0) - u(1,4,0) <= 83
MCLin4(1,4,0):  83 y(4,1,0) - u(1,4,0) >= -0
MCLin5(1,4,0):  -83 y(4,1,0) + v(1,4,0) - u(1,4,0) >= -83
MCLin6(4,1,0):  u(4,1,0) >= -0
MCLin7(4,1,0):  -88 y(1,4,0) - u(4,1,0) <= -0
MCLin8(4,1,0):  78 y(1,4,0) + v(4,1,0) - u(4,1,0) <= 78
MCLin9(4,1,0):  78 y(1,4,0) - u(4,1,0) >= -0
MCLin10(4,1,0):  -88 y(1,4,0) + v(4,1,0) - u(4,1,0) >= -88
MCLinV(1,4,1):  x(1,1) - v(1,4,1) - x(4,1) = 9
MCLinV(4,1,1):  - x(1,1) - v(4,1,1) + x(4,1) = 5
MCLin1(1,4,1):  u(1,4,1) >= -0
MCLin2(1,4,1):  -94 y(4,1,1) - u(1,4,1) <= -0
MCLin3(1,4,1):  72 y(4,1,1) + v(1,4,1) - u(1,4,1) <= 72
MCLin4(1,4,1):  72 y(4,1,1) - u(1,4,1) >= -0
MCLin5(1,4,1):  -94 y(4,1,1) + v(1,4,1) - u(1,4,1) >= -94
MCLin6(4,1,1):  u(4,1,1) >= -0
MCLin7(4,1,1):  -86 y(1,4,1) - u(4,1,1) <= -0
MCLin8(4,1,1):  80 y(1,4,1) + v(4,1,1) - u(4,1,1) <= 80
MCLin9(4,1,1):  80 y(1,4,1) - u(4,1,1) >= -0
MCLin10(4,1,1):  -86 y(1,4,1) + v(4,1,1) - u(4,1,1) >= -86
MCLinV(1,4,2):  x(1,2) - v(1,4,2) - x(4,2) = 5
MCLinV(4,1,2):  - x(1,2) - v(4,1,2) + x(4,2) = 1
MCLin1(1,4,2):  u(1,4,2) >= -0
MCLin2(1,4,2):  -86 y(4,1,2) - u(1,4,2) <= -0
MCLin3(1,4,2):  80 y(4,1,2) + v(1,4,2) - u(1,4,2) <= 80
MCLin4(1,4,2):  80 y(4,1,2) - u(1,4,2) >= -0
MCLin5(1,4,2):  -86 y(4,1,2) + v(1,4,2) - u(1,4,2) >= -86
MCLin6(4,1,2):  u(4,1,2) >= -0
MCLin7(4,1,2):  -86 y(1,4,2) - u(4,1,2) <= -0
MCLin8(4,1,2):  80 y(1,4,2) + v(4,1,2) - u(4,1,2) <= 80
MCLin9(4,1,2):  80 y(1,4,2) - u(4,1,2) >= -0
MCLin10(4,1,2):  -86 y(1,4,2) + v(4,1,2) - u(4,1,2) >= -86
MCLinV(1,4,3):  x(1,3) - v(1,4,3) - x(4,3) = 6
MCLinV(4,1,3):  - x(1,3) - v(4,1,3) + x(4,3) = 9
MCLin1(1,4,3):  u(1,4,3) >= -0
MCLin2(1,4,3):  -95 y(4,1,3) - u(1,4,3) <= -0
MCLin3(1,4,3):  71 y(4,1,3) + v(1,4,3) - u(1,4,3) <= 71
MCLin4(1,4,3):  71 y(4,1,3) - u(1,4,3) >= -0
MCLin5(1,4,3):  -95 y(4,1,3) + v(1,4,3) - u(1,4,3) >= -95
MCLin6(4,1,3):  u(4,1,3) >= -0
MCLin7(4,1,3):  -86 y(1,4,3) - u(4,1,3) <= -0
MCLin8(4,1,3):  80 y(1,4,3) + v(4,1,3) - u(4,1,3) <= 80
MCLin9(4,1,3):  80 y(1,4,3) - u(4,1,3) >= -0
MCLin10(4,1,3):  -86 y(1,4,3) + v(4,1,3) - u(4,1,3) >= -86
MCLinV(2,3,0):  x(2,0) - v(2,3,0) - x(3,0) = 9
MCLinV(3,2,0):  - x(2,0) - v(3,2,0) + x(3,0) = 6
MCLin1(2,3,0):  u(2,3,0) >= -0
MCLin2(2,3,0):  -91 y(3,2,0) - u(2,3,0) <= -0
MCLin3(2,3,0):  72 y(3,2,0) + v(2,3,0) - u(2,3,0) <= 72
MCLin4(2,3,0):  72 y(3,2,0) - u(2,3,0) >= -0
MCLin5(2,3,0):  -91 y(3,2,0) + v(2,3,0) - u(2,3,0) >= -91
MCLin6(3,2,0):  u(3,2,0) >= -0
MCLin7(3,2,0):  -87 y(2,3,0) - u(3,2,0) <= -0
MCLin8(3,2,0):  76 y(2,3,0) + v(3,2,0) - u(3,2,0) <= 76
MCLin9(3,2,0):  76 y(2,3,0) - u(3,2,0) >= -0
MCLin10(3,2,0):  -87 y(2,3,0) + v(3,2,0) - u(3,2,0) >= -87
MCLinV(2,3,1):  x(2,1) - v(2,3,1) - x(3,1) = 2
MCLinV(3,2,1):  - x(2,1) - v(3,2,1) + x(3,1) = 5
MCLin1(2,3,1):  u(2,3,1) >= -0
MCLin2(2,3,1):  -73 y(3,2,1) - u(2,3,1) <= -0
MCLin3(2,3,1):  90 y(3,2,1) + v(2,3,1) - u(2,3,1) <= 90
MCLin4(2,3,1):  90 y(3,2,1) - u(2,3,1) >= -0
MCLin5(2,3,1):  -73 y(3,2,1) + v(2,3,1) - u(2,3,1) >= -73
MCLin6(3,2,1):  u(3,2,1) >= -0
MCLin7(3,2,1):  -97 y(2,3,1) - u(3,2,1) <= -0
MCLin8(3,2,1):  66 y(2,3,1) + v(3,2,1) - u(3,2,1) <= 66
MCLin9(3,2,1):  66 y(2,3,1) - u(3,2,1) >= -0
MCLin10(3,2,1):  -97 y(2,3,1) + v(3,2,1) - u(3,2,1) >= -97
MCLinV(2,3,2):  x(2,2) - v(2,3,2) - x(3,2) = 3
MCLinV(3,2,2):  - x(2,2) - v(3,2,2) + x(3,2) = 3
MCLin1(2,3,2):  u(2,3,2) >= -0
MCLin2(2,3,2):  -88 y(3,2,2) - u(2,3,2) <= -0
MCLin3(2,3,2):  75 y(3,2,2) + v(2,3,2) - u(2,3,2) <= 75
MCLin4(2,3,2):  75 y(3,2,2) - u(2,3,2) >= -0
MCLin5(2,3,2):  -88 y(3,2,2) + v(2,3,2) - u(2,3,2) >= -88
MCLin6(3,2,2):  u(3,2,2) >= -0
MCLin7(3,2,2):  -81 y(2,3,2) - u(3,2,2) <= -0
MCLin8(3,2,2):  82 y(2,3,2) + v(3,2,2) - u(3,2,2) <= 82
MCLin9(3,2,2):  82 y(2,3,2) - u(3,2,2) >= -0
MCLin10(3,2,2):  -81 y(2,3,2) + v(3,2,2) - u(3,2,2) >= -81
MCLinV(2,3,3):  x(2,3) - v(2,3,3) - x(3,3) = 9
MCLinV(3,2,3):  - x(2,3) - v(3,2,3) + x(3,3) = 6
MCLin1(2,3,3):  u(2,3,3) >= -0
MCLin2(2,3,3):  -89 y(3,2,3) - u(2,3,3) <= -0
MCLin3(2,3,3):  74 y(3,2,3) + v(2,3,3) - u(2,3,3) <= 74
MCLin4(2,3,3):  74 y(3,2,3) - u(2,3,3) >= -0
MCLin5(2,3,3):  -89 y(3,2,3) + v(2,3,3) - u(2,3,3) >= -89
MCLin6(3,2,3):  u(3,2,3) >= -0
MCLin7(3,2,3):  -89 y(2,3,3) - u(3,2,3) <= -0
MCLin8(3,2,3):  74 y(2,3,3) + v(3,2,3) - u(3,2,3) <= 74
MCLin9(3,2,3):  74 y(2,3,3) - u(3,2,3) >= -0
MCLin10(3,2,3):  -89 y(2,3,3) + v(3,2,3) - u(3,2,3) >= -89
MCLinV(2,4,0):  x(2,0) - v(2,4,0) - x(4,0) = 3
MCLinV(4,2,0):  - x(2,0) - v(4,2,0) + x(4,0) = 6
MCLin1(2,4,0):  u(2,4,0) >= -0
MCLin2(2,4,0):  -83 y(4,2,0) - u(2,4,0) <= -0
MCLin3(2,4,0):  80 y(4,2,0) + v(2,4,0) - u(2,4,0) <= 80
MCLin4(2,4,0):  80 y(4,2,0) - u(2,4,0) >= -0
MCLin5(2,4,0):  -83 y(4,2,0) + v(2,4,0) - u(2,4,0) >= -83
MCLin6(4,2,0):  u(4,2,0) >= -0
MCLin7(4,2,0):  -89 y(2,4,0) - u(4,2,0) <= -0
MCLin8(4,2,0):  74 y(2,4,0) + v(4,2,0) - u(4,2,0) <= 74
MCLin9(4,2,0):  74 y(2,4,0) - u(4,2,0) >= -0
MCLin10(4,2,0):  -89 y(2,4,0) + v(4,2,0) - u(4,2,0) >= -89
MCLinV(2,4,1):  x(2,1) - v(2,4,1) - x(4,1) = 9
MCLinV(4,2,1):  - x(2,1) - v(4,2,1) + x(4,1) = 5
MCLin1(2,4,1):  u(2,4,1) >= -0
MCLin2(2,4,1):  -88 y(4,2,1) - u(2,4,1) <= -0
MCLin3(2,4,1):  75 y(4,2,1) + v(2,4,1) - u(2,4,1) <= 75
MCLin4(2,4,1):  75 y(4,2,1) - u(2,4,1) >= -0
MCLin5(2,4,1):  -88 y(4,2,1) + v(2,4,1) - u(2,4,1) >= -88
MCLin6(4,2,1):  u(4,2,1) >= -0
MCLin7(4,2,1):  -89 y(2,4,1) - u(4,2,1) <= -0
MCLin8(4,2,1):  74 y(2,4,1) + v(4,2,1) - u(4,2,1) <= 74
MCLin9(4,2,1):  74 y(2,4,1) - u(4,2,1) >= -0
MCLin10(4,2,1):  -89 y(2,4,1) + v(4,2,1) - u(4,2,1) >= -89
MCLinV(2,4,2):  x(2,2) - v(2,4,2) - x(4,2) = 5
MCLinV(4,2,2):  - x(2,2) - v(4,2,2) + x(4,2) = 3
MCLin1(2,4,2):  u(2,4,2) >= -0
MCLin2(2,4,2):  -82 y(4,2,2) - u(2,4,2) <= -0
MCLin3(2,4,2):  81 y(4,2,2) + v(2,4,2) - u(2,4,2) <= 81
MCLin4(2,4,2):  81 y(4,2,2) - u(2,4,2) >= -0
MCLin5(2,4,2):  -82 y(4,2,2) + v(2,4,2) - u(2,4,2) >= -82
MCLin6(4,2,2):  u(4,2,2) >= -0
MCLin7(4,2,2):  -89 y(2,4,2) - u(4,2,2) <= -0
MCLin8(4,2,2):  74 y(2,4,2) + v(4,2,2) - u(4,2,2) <= 74
MCLin9(4,2,2):  74 y(2,4,2) - u(4,2,2) >= -0
MCLin10(4,2,2):  -89 y(2,4,2) + v(4,2,2) - u(4,2,2) >= -89
MCLinV(2,4,3):  x(2,3) - v(2,4,3) - x(4,3) = 6
MCLinV(4,2,3):  - x(2,3) - v(4,2,3) + x(4,3) = 6
MCLin1(2,4,3):  u(2,4,3) >= -0
MCLin2(2,4,3):  -89 y(4,2,3) - u(2,4,3) <= -0
MCLin3(2,4,3):  74 y(4,2,3) + v(2,4,3) - u(2,4,3) <= 74
MCLin4(2,4,3):  74 y(4,2,3) - u(2,4,3) >= -0
MCLin5(2,4,3):  -89 y(4,2,3) + v(2,4,3) - u(2,4,3) >= -89
MCLin6(4,2,3):  u(4,2,3) >= -0
MCLin7(4,2,3):  -86 y(2,4,3) - u(4,2,3) <= -0
MCLin8(4,2,3):  77 y(2,4,3) + v(4,2,3) - u(4,2,3) <= 77
MCLin9(4,2,3):  77 y(2,4,3) - u(4,2,3) >= -0
MCLin10(4,2,3):  -86 y(2,4,3) + v(4,2,3) - u(4,2,3) >= -86
MCLinV(3,4,0):  x(3,0) - v(3,4,0) - x(4,0) = 3
MCLinV(4,3,0):  - x(3,0) - v(4,3,0) + x(4,0) = 9
MCLin1(3,4,0):  u(3,4,0) >= -0
MCLin2(3,4,0):  -81 y(4,3,0) - u(3,4,0) <= -0
MCLin3(3,4,0):  79 y(4,3,0) + v(3,4,0) - u(3,4,0) <= 79
MCLin4(3,4,0):  79 y(4,3,0) - u(3,4,0) >= -0
MCLin5(3,4,0):  -81 y(4,3,0) + v(3,4,0) - u(3,4,0) >= -81
MCLin6(4,3,0):  u(4,3,0) >= -0
MCLin7(4,3,0):  -91 y(3,4,0) - u(4,3,0) <= -0
MCLin8(4,3,0):  69 y(3,4,0) + v(4,3,0) - u(4,3,0) <= 69
MCLin9(4,3,0):  69 y(3,4,0) - u(4,3,0) >= -0
MCLin10(4,3,0):  -91 y(3,4,0) + v(4,3,0) - u(4,3,0) >= -91
MCLinV(3,4,1):  x(3,1) - v(3,4,1) - x(4,1) = 9
MCLinV(4,3,1):  - x(3,1) - v(4,3,1) + x(4,1) = 2
MCLin1(3,4,1):  u(3,4,1) >= -0
MCLin2(3,4,1):  -97 y(4,3,1) - u(3,4,1) <= -0
MCLin3(3,4,1):  63 y(4,3,1) + v(3,4,1) - u(3,4,1) <= 63
MCLin4(3,4,1):  63 y(4,3,1) - u(3,4,1) >= -0
MCLin5(3,4,1):  -97 y(4,3,1) + v(3,4,1) - u(3,4,1) >= -97
MCLin6(4,3,1):  u(4,3,1) >= -0
MCLin7(4,3,1):  -74 y(3,4,1) - u(4,3,1) <= -0
MCLin8(4,3,1):  86 y(3,4,1) + v(4,3,1) - u(4,3,1) <= 86
MCLin9(4,3,1):  86 y(3,4,1) - u(4,3,1) >= -0
MCLin10(4,3,1):  -74 y(3,4,1) + v(4,3,1) - u(4,3,1) >= -74
MCLinV(3,4,2):  x(3,2) - v(3,4,2) - x(4,2) = 5
MCLinV(4,3,2):  - x(3,2) - v(4,3,2) + x(4,2) = 3
MCLin1(3,4,2):  u(3,4,2) >= -0
MCLin2(3,4,2):  -77 y(4,3,2) - u(3,4,2) <= -0
MCLin3(3,4,2):  83 y(4,3,2) + v(3,4,2) - u(3,4,2) <= 83
MCLin4(3,4,2):  83 y(4,3,2) - u(3,4,2) >= -0
MCLin5(3,4,2):  -77 y(4,3,2) + v(3,4,2) - u(3,4,2) >= -77
MCLin6(4,3,2):  u(4,3,2) >= -0
MCLin7(4,3,2):  -91 y(3,4,2) - u(4,3,2) <= -0
MCLin8(4,3,2):  69 y(3,4,2) + v(4,3,2) - u(4,3,2) <= 69
MCLin9(4,3,2):  69 y(3,4,2) - u(4,3,2) >= -0
MCLin10(4,3,2):  -91 y(3,4,2) + v(4,3,2) - u(4,3,2) >= -91
MCLinV(3,4,3):  x(3,3) - v(3,4,3) - x(4,3) = 6
MCLinV(4,3,3):  - x(3,3) - v(4,3,3) + x(4,3) = 9
MCLin1(3,4,3):  u(3,4,3) >= -0
MCLin2(3,4,3):  -89 y(4,3,3) - u(3,4,3) <= -0
MCLin3(3,4,3):  71 y(4,3,3) + v(3,4,3) - u(3,4,3) <= 71
MCLin4(3,4,3):  71 y(4,3,3) - u(3,4,3) >= -0
MCLin5(3,4,3):  -89 y(4,3,3) + v(3,4,3) - u(3,4,3) >= -89
MCLin6(4,3,3):  u(4,3,3) >= -0
MCLin7(4,3,3):  -86 y(3,4,3) - u(4,3,3) <= -0
MCLin8(4,3,3):  74 y(3,4,3) + v(4,3,3) - u(4,3,3) <= 74
MCLin9(4,3,3):  74 y(3,4,3) - u(4,3,3) >= -0
MCLin10(4,3,3):  -86 y(3,4,3) + v(4,3,3) - u(4,3,3) >= -86
makespan(0):  C - x(0,2) >= 10
makespan(1):  C - x(1,3) >= 9
makespan(2):  C - x(2,3) >= 6
makespan(3):  C - x(3,3) >= 9
makespan(4):  C - x(4,3) >= 6
cut_clique_0(01234,0):  0.02128 x(0,0) + 0.00851 x(1,0) + 0.02553 x(2,0) + 0.03830 x(3,0) + 0.01277 x(4,0) >= 1
cut_clique_0(0123,0):  0.02959 x(0,0) + 0.01183 x(1,0) + 0.03550 x(2,0) + 0.05325 x(3,0) >= 1
cut_clique_0(1234,0):  0.01481 x(1,0) + 0.04444 x(2,0) + 0.06667 x(3,0) + 0.02222 x(4,0) >= 1
cut_clique_0(0234,0):  0.02646 x(0,0) + 0.03175 x(2,0) + 0.04762 x(3,0) + 0.01587 x(4,0) >= 1
cut_clique_0(0124,0):  0.05495 x(0,0) + 0.02198 x(1,0) + 0.06593 x(2,0) + 0.03297 x(4,0) >= 1
cut_clique_0(0134,0):  0.04132 x(0,0) + 0.01653 x(1,0) + 0.07438 x(3,0) + 0.02479 x(4,0) >= 1
cut_clique_0(012,0):  0.09615 x(0,0) + 0.03846 x(1,0) + 0.11538 x(2,0) >= 1
cut_clique_0(123,0):  0.02381 x(1,0) + 0.07143 x(2,0) + 0.10714 x(3,0) >= 1
cut_clique_0(013,0):  0.06849 x(0,0) + 0.12329 x(3,0) >= 1
cut_clique_0(023,0):  0.03876 x(0,0) + 0.02713 x(2,0) + 0.06977 x(3,0) >= 1
cut_clique_0(234,0):  0.06061 x(2,0) + 0.09091 x(3,0) + 0.03030 x(4,0) >= 1
cut_clique_0(124,0):  0.05556 x(1,0) + 0.16667 x(2,0) + 0.08333 x(4,0) >= 1
cut_clique_0(134,0):  0.03922 x(1,0) + 0.17647 x(3,0) + 0.05882 x(4,0) >= 1
cut_clique_0(014,0):  0.16129 x(0,0) + 0.06452 x(1,0) + 0.09677 x(4,0) >= 1
cut_clique_0(024,0):  0.07937 x(0,0) + 0.09524 x(2,0) + 0.04762 x(4,0) >= 1
cut_clique_0(034,0):  0.05747 x(0,0) + 0.10345 x(3,0) + 0.01006 x(4,0) >= 1
cut_clique_0(01234,1):  0.01331 x(0,1) + 0.00359 x(1,1) + 0.02218 x(2,1) + 0.03992 x(4,1) >= 1
cut_clique_0(0124,1):  0.01331 x(0,1) + 0.00359 x(1,1) + 0.02218 x(2,1) + 0.03992 x(4,1) >= 1
cut_clique_0(0134,1):  0.02395 x(0,1) + 0.00599 x(1,1) + 0.07186 x(4,1) >= 1
cut_clique_0(0234,1):  0.00942 x(0,1) + 0.02524 x(2,1) + 0.04544 x(4,1) >= 1
cut_clique_0(1234,1):  0.03614 x(2,1) + 0.04819 x(4,1) >= 1
cut_clique_0(014,1):  0.02395 x(0,1) + 0.00599 x(1,1) + 0.07186 x(4,1) >= 1
cut_clique_0(024,1):  0.00942 x(0,1) + 0.02524 x(2,1) + 0.04544 x(4,1) >= 1
cut_clique_0(124,1):  0.03614 x(2,1) + 0.04819 x(4,1) >= 1
cut_clique_0(034,1):  0.01754 x(0,1) + 0.08772 x(4,1) >= 1
cut_clique_0(234,1):  0.03614 x(2,1) + 0.04819 x(4,1) >= 1
cut_clique_0(01234,2):  0.05490 x(0,2) + 0.00476 x(2,2) + 0.01647 x(3,2) + 0.00404 x(4,2) >= 1
cut_clique_0(0123,2):  0.05294 x(0,2) + 0.02353 x(3,2) >= 1
cut_clique_0(0234,2):  0.05490 x(0,2) + 0.00476 x(2,2) + 0.01647 x(3,2) + 0.00404 x(4,2) >= 1
cut_clique_0(0134,2):  0.05294 x(0,2) + 0.02353 x(3,2) >= 1
cut_clique_0(023,2):  0.05294 x(0,2) + 0.02353 x(3,2) >= 1
cut_clique_0(013,2):  0.05294 x(0,2) + 0.02353 x(3,2) >= 1
cut_clique_0(034,2):  0.05294 x(0,2) + 0.02353 x(3,2) >= 1
cut_clique_0(01234,3):  0.00449 x(1,3) + 0.01155 x(2,3) + 0.01732 x(3,3) + 0.01155 x(4,3) >= 1
cut_clique_0(1234,3):  0.00449 x(1,3) + 0.01155 x(2,3) + 0.01732 x(3,3) + 0.01155 x(4,3) >= 1
cut_clique_0(0123,3):  0.00657 x(1,3) + 0.01840 x(2,3) + 0.02760 x(3,3) >= 1
cut_clique_0(0134,3):  0.00657 x(1,3) + 0.02760 x(3,3) + 0.01840 x(4,3) >= 1
cut_clique_0(0124,3):  0.00781 x(1,3) + 0.02344 x(2,3) + 0.02344 x(4,3) >= 1
cut_clique_0(0234,3):  0.01370 x(2,3) + 0.02055 x(3,3) + 0.01370 x(4,3) >= 1
cut_clique_0(123,3):  0.00657 x(1,3) + 0.01840 x(2,3) + 0.02760 x(3,3) >= 1
cut_clique_0(124,3):  0.00781 x(1,3) + 0.02344 x(2,3) + 0.02344 x(4,3) >= 1
cut_clique_0(134,3):  0.00657 x(1,3) + 0.02760 x(3,3) + 0.01840 x(4,3) >= 1
cut_clique_0(234,3):  0.01370 x(2,3) + 0.02055 x(3,3) + 0.01370 x(4,3) >= 1
cut_clique_0(013,3):  0.01075 x(1,3) + 0.05376 x(3,3) >= 1
cut_clique_0(023,3):  0.02273 x(2,3) + 0.03409 x(3,3) >= 1
cut_clique_0(024,3):  0.01351 x(2,3) + 0.04054 x(4,3) >= 1
cut_clique_0(034,3):  0.02062 x(3,3) + 0.03093 x(4,3) >= 1
Bounds
 0 <= C <= 103
 2 <= x(0,0) <= 85
 0 <= y(0,1,0) <= 1
 0 <= y(1,0,0) <= 1
 -86 <= v(0,1,0) <= 83
 -90 <= v(1,0,0) <= 79
 -1030 <= u(0,1,0)
 -1030 <= u(1,0,0)
 0 <= y(0,2,0) <= 1
 0 <= y(2,0,0) <= 1
 -87 <= v(0,2,0) <= 79
 -90 <= v(2,0,0) <= 76
 -1030 <= u(0,2,0)
 -1030 <= u(2,0,0)
 0 <= y(0,3,0) <= 1
 0 <= y(3,0,0) <= 1
 -89 <= v(0,3,0) <= 74
 -88 <= v(3,0,0) <= 75
 -1030 <= u(0,3,0)
 -1030 <= u(3,0,0)
 0 <= y(0,4,0) <= 1
 0 <= y(4,0,0) <= 1
 -81 <= v(0,4,0) <= 82
 -90 <= v(4,0,0) <= 73
 -1030 <= u(0,4,0)
 -1030 <= u(4,0,0)
 0 <= x(1,0) <= 86
 0 <= y(1,2,0) <= 1
 0 <= y(2,1,0) <= 1
 -89 <= v(1,2,0) <= 80
 -88 <= v(2,1,0) <= 81
 -1030 <= u(1,2,0)
 -1030 <= u(2,1,0)
 0 <= y(1,3,0) <= 1
 0 <= y(3,1,0) <= 1
 -91 <= v(1,3,0) <= 75
 -86 <= v(3,1,0) <= 80
 -1030 <= u(1,3,0)
 -1030 <= u(3,1,0)
 0 <= y(1,4,0) <= 1
 0 <= y(4,1,0) <= 1
 -83 <= v(1,4,0) <= 83
 -88 <= v(4,1,0) <= 78
 -1030 <= u(1,4,0)
 -1030 <= u(4,1,0)
 0 <= x(2,0) <= 83
 0 <= y(2,3,0) <= 1
 0 <= y(3,2,0) <= 1
 -91 <= v(2,3,0) <= 72
 -87 <= v(3,2,0) <= 76
 -1030 <= u(2,3,0)
 -1030 <= u(3,2,0)
 0 <= y(2,4,0) <= 1
 0 <= y(4,2,0) <= 1
 -83 <= v(2,4,0) <= 80
 -89 <= v(4,2,0) <= 74
 -1030 <= u(2,4,0)
 -1030 <= u(4,2,0)
 2 <= x(3,0) <= 82
 0 <= y(3,4,0) <= 1
 0 <= y(4,3,0) <= 1
 -81 <= v(3,4,0) <= 79
 -91 <= v(4,3,0) <= 69
 -1030 <= u(3,4,0)
 -1030 <= u(4,3,0)
 0 <= x(4,0) <= 80
 7 <= x(0,1) <= 90
 0 <= y(0,1,1) <= 1
 0 <= y(1,0,1) <= 1
 -87 <= v(0,1,1) <= 82
 -90 <= v(1,0,1) <= 79
 -1030 <= u(0,1,1)
 -1030 <= u(1,0,1)
 0 <= y(0,2,1) <= 1
 0 <= y(2,0,1) <= 1
 -90 <= v(0,2,1) <= 76
 -84 <= v(2,0,1) <= 82
 -1030 <= u(0,2,1)
 -1030 <= u(2,0,1)
 0 <= y(0,3,1) <= 1
 0 <= y(3,0,1) <= 1
 -75 <= v(0,3,1) <= 88
 -93 <= v(3,0,1) <= 70
 -1030 <= u(0,3,1)
 -1030 <= u(3,0,1)
 0 <= y(0,4,1) <= 1
 0 <= y(4,0,1) <= 1
 -90 <= v(0,4,1) <= 73
 -85 <= v(4,0,1) <= 78
 -1030 <= u(0,4,1)
 -1030 <= u(4,0,1)
 3 <= x(1,1) <= 89
 0 <= y(1,2,1) <= 1
 0 <= y(2,1,1) <= 1
 -94 <= v(1,2,1) <= 75
 -85 <= v(2,1,1) <= 84
 -1030 <= u(1,2,1)
 -1030 <= u(2,1,1)
 0 <= y(1,3,1) <= 1
 0 <= y(3,1,1) <= 1
 -79 <= v(1,3,1) <= 87
 -94 <= v(3,1,1) <= 72
 -1030 <= u(1,3,1)
 -1030 <= u(3,1,1)
 0 <= y(1,4,1) <= 1
 0 <= y(4,1,1) <= 1
 -94 <= v(1,4,1) <= 72
 -86 <= v(4,1,1) <= 80
 -1030 <= u(1,4,1)
 -1030 <= u(4,1,1)
 9 <= x(2,1) <= 92
 0 <= y(2,3,1) <= 1
 0 <= y(3,2,1) <= 1
 -73 <= v(2,3,1) <= 90
 -97 <= v(3,2,1) <= 66
 -1030 <= u(2,3,1)
 -1030 <= u(3,2,1)
 0 <= y(2,4,1) <= 1
 0 <= y(4,2,1) <= 1
 -88 <= v(2,4,1) <= 75
 -89 <= v(4,2,1) <= 74
 -1030 <= u(2,4,1)
 -1030 <= u(4,2,1)
 0 <= x(3,1) <= 80
 0 <= y(3,4,1) <= 1
 0 <= y(4,3,1) <= 1
 -97 <= v(3,4,1) <= 63
 -74 <= v(4,3,1) <= 86
 -1030 <= u(3,4,1)
 -1030 <= u(4,3,1)
 8 <= x(4,1) <= 88
 10 <= x(0,2) <= 93
 0 <= y(0,1,2) <= 1
 0 <= y(1,0,2) <= 1
 -79 <= v(0,1,2) <= 90
 -101 <= v(1,0,2) <= 68
 -1030 <= u(0,1,2)
 -1030 <= u(1,0,2)
 0 <= y(0,2,2) <= 1
 0 <= y(2,0,2) <= 1
 -82 <= v(0,2,2) <= 84
 -97 <= v(2,0,2) <= 69
 -1030 <= u(0,2,2)
 -1030 <= u(2,0,2)
 0 <= y(0,3,2) <= 1
 0 <= y(3,0,2) <= 1
 -84 <= v(0,3,2) <= 79
 -92 <= v(3,0,2) <= 71
 -1030 <= u(0,3,2)
 -1030 <= u(3,0,2)
 0 <= y(0,4,2) <= 1
 0 <= y(4,0,2) <= 1
 -78 <= v(0,4,2) <= 85
 -100 <= v(4,0,2) <= 63
 -1030 <= u(0,4,2)
 -1030 <= u(4,0,2)
 2 <= x(1,2) <= 88
 0 <= y(1,2,2) <= 1
 0 <= y(2,1,2) <= 1
 -90 <= v(1,2,2) <= 79
 -83 <= v(2,1,2) <= 86
 -1030 <= u(1,2,2)
 -1030 <= u(2,1,2)
 0 <= y(1,3,2) <= 1
 0 <= y(3,1,2) <= 1
 -92 <= v(1,3,2) <= 74
 -78 <= v(3,1,2) <= 88
 -1030 <= u(1,3,2)
 -1030 <= u(3,1,2)
 0 <= y(1,4,2) <= 1
 0 <= y(4,1,2) <= 1
 -86 <= v(1,4,2) <= 80
 -86 <= v(4,1,2) <= 80
 -1030 <= u(1,4,2)
 -1030 <= u(4,1,2)
 6 <= x(2,2) <= 89
 0 <= y(2,3,2) <= 1
 0 <= y(3,2,2) <= 1
 -88 <= v(2,3,2) <= 75
 -81 <= v(3,2,2) <= 82
 -1030 <= u(2,3,2)
 -1030 <= u(3,2,2)
 0 <= y(2,4,2) <= 1
 0 <= y(4,2,2) <= 1
 -82 <= v(2,4,2) <= 81
 -89 <= v(4,2,2) <= 74
 -1030 <= u(2,4,2)
 -1030 <= u(4,2,2)
 11 <= x(3,2) <= 91
 0 <= y(3,4,2) <= 1
 0 <= y(4,3,2) <= 1
 -77 <= v(3,4,2) <= 83
 -91 <= v(4,3,2) <= 69
 -1030 <= u(3,4,2)
 -1030 <= u(4,3,2)
 3 <= x(4,2) <= 83
 0 <= x(0,3) <= 83
 0 <= y(0,1,3) <= 1
 0 <= y(1,0,3) <= 1
 -103 <= v(0,1,3) <= 66
 -77 <= v(1,0,3) <= 92
 -1030 <= u(0,1,3)
 -1030 <= u(1,0,3)
 0 <= y(0,2,3) <= 1
 0 <= y(2,0,3) <= 1
 -103 <= v(0,2,3) <= 63
 -71 <= v(2,0,3) <= 95
 -1030 <= u(0,2,3)
 -1030 <= u(2,0,3)
 0 <= y(0,3,3) <= 1
 0 <= y(3,0,3) <= 1
 -103 <= v(0,3,3) <= 60
 -71 <= v(3,0,3) <= 92
 -1030 <= u(0,3,3)
 -1030 <= u(3,0,3)
 0 <= y(0,4,3) <= 1
 0 <= y(4,0,3) <= 1
 -103 <= v(0,4,3) <= 60
 -68 <= v(4,0,3) <= 95
 -1030 <= u(0,4,3)
 -1030 <= u(4,0,3)
 8 <= x(1,3) <= 94
 0 <= y(1,2,3) <= 1
 0 <= y(2,1,3) <= 1
 -95 <= v(1,2,3) <= 74
 -89 <= v(2,1,3) <= 80
 -1030 <= u(1,2,3)
 -1030 <= u(2,1,3)
 0 <= y(1,3,3) <= 1
 0 <= y(3,1,3) <= 1
 -95 <= v(1,3,3) <= 71
 -89 <= v(3,1,3) <= 77
 -1030 <= u(1,3,3)
 -1030 <= u(3,1,3)
 0 <= y(1,4,3) <= 1
 0 <= y(4,1,3) <= 1
 -95 <= v(1,4,3) <= 71
 -86 <= v(4,1,3) <= 80
 -1030 <= u(1,4,3)
 -1030 <= u(4,1,3)
 14 <= x(2,3) <= 97
 0 <= y(2,3,3) <= 1
 0 <= y(3,2,3) <= 1
 -89 <= v(2,3,3) <= 74
 -89 <= v(3,2,3) <= 74
 -1030 <= u(2,3,3)
 -1030 <= u(3,2,3)
 0 <= y(2,4,3) <= 1
 0 <= y(4,2,3) <= 1
 -89 <= v(2,4,3) <= 74
 -86 <= v(4,2,3) <= 77
 -1030 <= u(2,4,3)
 -1030 <= u(4,2,3)
 14 <= x(3,3) <= 94
 0 <= y(3,4,3) <= 1
 0 <= y(4,3,3) <= 1
 -89 <= v(3,4,3) <= 71
 -86 <= v(4,3,3) <= 74
 -1030 <= u(3,4,3)
 -1030 <= u(4,3,3)
 17 <= x(4,3) <= 97
Integers
C x(0,0) y(0,1,0) y(1,0,0) v(0,1,0) v(1,0,0) u(0,1,0) u(1,0,0) y(0,2,0) y(2,0,0) 
v(0,2,0) v(2,0,0) u(0,2,0) u(2,0,0) y(0,3,0) y(3,0,0) v(0,3,0) v(3,0,0) u(0,3,0) u(3,0,0) 
y(0,4,0) y(4,0,0) v(0,4,0) v(4,0,0) u(0,4,0) u(4,0,0) x(1,0) y(1,2,0) y(2,1,0) v(1,2,0) 
v(2,1,0) u(1,2,0) u(2,1,0) y(1,3,0) y(3,1,0) v(1,3,0) v(3,1,0) u(1,3,0) u(3,1,0) y(1,4,0) 
y(4,1,0) v(1,4,0) v(4,1,0) u(1,4,0) u(4,1,0) x(2,0) y(2,3,0) y(3,2,0) v(2,3,0) v(3,2,0) 
u(2,3,0) u(3,2,0) y(2,4,0) y(4,2,0) v(2,4,0) v(4,2,0) u(2,4,0) u(4,2,0) x(3,0) y(3,4,0) 
y(4,3,0) v(3,4,0) v(4,3,0) u(3,4,0) u(4,3,0) x(4,0) x(0,1) y(0,1,1) y(1,0,1) v(0,1,1) 
v(1,0,1) u(0,1,1) u(1,0,1) y(0,2,1) y(2,0,1) v(0,2,1) v(2,0,1) u(0,2,1) u(2,0,1) y(0,3,1) 
y(3,0,1) v(0,3,1) v(3,0,1) u(0,3,1) u(3,0,1) y(0,4,1) y(4,0,1) v(0,4,1) v(4,0,1) u(0,4,1) 
u(4,0,1) x(1,1) y(1,2,1) y(2,1,1) v(1,2,1) v(2,1,1) u(1,2,1) u(2,1,1) y(1,3,1) y(3,1,1) 
v(1,3,1) v(3,1,1) u(1,3,1) u(3,1,1) y(1,4,1) y(4,1,1) v(1,4,1) v(4,1,1) u(1,4,1) u(4,1,1) 
x(2,1) y(2,3,1) y(3,2,1) v(2,3,1) v(3,2,1) u(2,3,1) u(3,2,1) y(2,4,1) y(4,2,1) v(2,4,1) 
v(4,2,1) u(2,4,1) u(4,2,1) x(3,1) y(3,4,1) y(4,3,1) v(3,4,1) v(4,3,1) u(3,4,1) u(4,3,1) 
x(4,1) x(0,2) y(0,1,2) y(1,0,2) v(0,1,2) v(1,0,2) u(0,1,2) u(1,0,2) y(0,2,2) y(2,0,2) 
v(0,2,2) v(2,0,2) u(0,2,2) u(2,0,2) y(0,3,2) y(3,0,2) v(0,3,2) v(3,0,2) u(0,3,2) u(3,0,2) 
y(0,4,2) y(4,0,2) v(0,4,2) v(4,0,2) u(0,4,2) u(4,0,2) x(1,2) y(1,2,2) y(2,1,2) v(1,2,2) 
v(2,1,2) u(1,2,2) u(2,1,2) y(1,3,2) y(3,1,2) v(1,3,2) v(3,1,2) u(1,3,2) u(3,1,2) y(1,4,2) 
y(4,1,2) v(1,4,2) v(4,1,2) u(1,4,2) u(4,1,2) x(2,2) y(2,3,2) y(3,2,2) v(2,3,2) v(3,2,2) 
u(2,3,2) u(3,2,2) y(2,4,2) y(4,2,2) v(2,4,2) v(4,2,2) u(2,4,2) u(4,2,2) x(3,2) y(3,4,2) 
y(4,3,2) v(3,4,2) v(4,3,2) u(3,4,2) u(4,3,2) x(4,2) x(0,3) y(0,1,3) y(1,0,3) v(0,1,3) 
v(1,0,3) u(0,1,3) u(1,0,3) y(0,2,3) y(2,0,3) v(0,2,3) v(2,0,3) u(0,2,3) u(2,0,3) y(0,3,3) 
y(3,0,3) v(0,3,3) v(3,0,3) u(0,3,3) u(3,0,3) y(0,4,3) y(4,0,3) v(0,4,3) v(4,0,3) u(0,4,3) 
u(4,0,3) x(1,3) y(1,2,3) y(2,1,3) v(1,2,3) v(2,1,3) u(1,2,3) u(2,1,3) y(1,3,3) y(3,1,3) 
v(1,3,3) v(3,1,3) u(1,3,3) u(3,1,3) y(1,4,3) y(4,1,3) v(1,4,3) v(4,1,3) u(1,4,3) u(4,1,3) 
x(2,3) y(2,3,3) y(3,2,3) v(2,3,3) v(3,2,3) u(2,3,3) u(3,2,3) y(2,4,3) y(4,2,3) v(2,4,3) 
v(4,2,3) u(2,4,3) u(4,2,3) x(3,3) y(3,4,3) y(4,3,3) v(3,4,3) v(4,3,3) u(3,4,3) u(4,3,3) 
x(4,3) 
End
